p td 600 1674 
179 3
179 6
179 7
179 15
179 18
179 43
179 45
179 53
179 54
179 60
179 65
179 77
179 81
179 83
179 85
179 87
179 90
179 91
179 96
179 104
179 111
179 113
179 130
179 135
179 137
179 138
179 140
179 141
179 154
179 159
179 160
179 166
179 171
179 179
179 182
179 185
179 189
179 196
179 199
179 202
179 204
179 207
179 215
179 220
179 223
179 226
179 239
179 242
179 253
179 254
179 257
179 260
179 263
179 264
179 270
179 275
179 276
179 279
179 283
179 284
179 304
179 307
179 318
179 330
179 333
179 340
179 343
179 349
179 352
179 354
179 363
179 373
179 375
179 376
179 383
179 386
179 387
179 394
179 396
179 398
179 406
179 410
179 412
179 414
179 420
179 421
179 429
179 437
179 440
179 451
179 456
179 457
179 464
179 468
179 471
179 478
179 481
179 484
179 487
179 498
179 501
179 506
179 507
179 508
179 526
179 528
179 529
179 530
179 533
179 537
179 544
179 547
179 554
179 556
179 567
179 572
179 578
179 581
179 583
179 588
179 590
179 592
179 594
179 595
179 598
179 600
520 5
520 7
520 10
520 11
520 15
520 18
520 20
520 21
520 22
520 25
520 26
520 30
520 41
520 49
520 50
520 52
520 59
520 63
520 68
520 71
520 72
520 79
520 80
520 81
520 82
520 91
520 93
520 109
520 114
520 116
520 127
520 128
520 134
520 136
520 137
520 138
520 147
520 160
520 162
520 165
520 166
520 170
520 175
520 196
520 199
520 200
520 207
520 208
520 209
520 213
520 217
520 218
520 219
520 221
520 225
520 227
520 229
520 232
520 245
520 250
520 254
520 262
520 263
520 274
520 279
520 284
520 289
520 296
520 301
520 335
520 349
520 361
520 370
520 371
520 385
520 394
520 399
520 401
520 406
520 426
520 427
520 430
520 433
520 434
520 438
520 451
520 452
520 473
520 486
520 489
520 494
520 497
520 499
520 513
520 516
520 520
520 527
520 529
520 531
520 533
520 534
520 543
520 549
520 552
520 559
520 560
520 562
520 569
520 572
520 573
520 575
520 576
520 579
520 581
520 584
520 585
520 598
32 3
32 4
32 8
32 11
32 13
32 14
32 15
32 19
32 20
32 21
32 28
32 29
32 30
32 35
32 39
32 41
32 42
32 54
32 59
32 60
32 61
32 64
32 70
32 76
32 91
32 96
32 100
32 108
32 109
32 110
32 114
32 115
32 117
32 125
32 126
32 134
32 137
32 138
32 147
32 153
32 156
32 163
32 168
32 170
32 174
32 178
32 179
32 188
32 189
32 190
32 197
32 205
32 207
32 208
32 221
32 232
32 234
32 247
32 264
32 279
32 284
32 291
32 312
32 314
32 315
32 321
32 322
32 323
32 324
32 325
32 345
32 346
32 349
32 356
32 358
32 368
32 372
32 373
32 374
32 382
32 383
32 384
32 387
32 388
32 389
32 397
32 398
32 401
32 411
32 416
32 417
32 418
32 420
32 421
32 429
32 437
32 440
32 445
32 452
32 453
32 457
32 459
32 466
32 467
32 472
32 478
32 480
32 487
32 488
32 491
32 492
32 493
32 495
32 496
32 499
32 508
32 510
32 513
32 516
32 520
32 541
32 552
32 558
32 569
32 572
32 582
32 592
32 596
73 4
73 26
73 37
73 38
73 43
73 51
73 54
73 64
73 67
73 68
73 73
73 82
73 86
73 90
73 92
73 93
73 94
73 103
73 105
73 106
73 114
73 120
73 122
73 126
73 127
73 135
73 165
73 174
73 175
73 176
73 178
73 182
73 183
73 184
73 186
73 188
73 190
73 191
73 204
73 207
73 210
73 211
73 219
73 221
73 230
73 235
73 255
73 264
73 267
73 269
73 281
73 284
73 285
73 287
73 288
73 289
73 297
73 304
73 307
73 316
73 325
73 335
73 339
73 352
73 353
73 357
73 358
73 363
73 379
73 380
73 386
73 387
73 398
73 418
73 420
73 421
73 423
73 424
73 438
73 442
73 443
73 444
73 451
73 461
73 463
73 466
73 471
73 489
73 494
73 496
73 500
73 507
73 508
73 511
73 523
73 527
73 530
73 532
73 542
73 548
73 556
73 566
73 567
73 570
73 573
73 579
73 588
73 589
73 591
73 592
73 597
73 598
73 599
244 5
244 6
244 7
244 8
244 9
244 11
244 16
244 17
244 30
244 32
244 38
244 43
244 45
244 50
244 52
244 53
244 58
244 62
244 68
244 77
244 82
244 89
244 94
244 97
244 104
244 109
244 127
244 132
244 134
244 136
244 137
244 143
244 144
244 146
244 150
244 158
244 165
244 170
244 174
244 175
244 178
244 179
244 180
244 184
244 195
244 196
244 204
244 216
244 218
244 234
244 242
244 248
244 252
244 257
244 262
244 263
244 264
244 267
244 271
244 275
244 288
244 296
244 299
244 310
244 316
244 323
244 326
244 327
244 329
244 336
244 339
244 340
244 341
244 342
244 343
244 347
244 362
244 363
244 365
244 372
244 373
244 383
244 385
244 392
244 394
244 398
244 411
244 412
244 422
244 424
244 425
244 431
244 441
244 444
244 448
244 452
244 454
244 456
244 457
244 458
244 465
244 466
244 482
244 485
244 489
244 492
244 497
244 498
244 504
244 505
244 509
244 514
244 515
244 531
244 546
244 550
244 558
244 562
244 567
244 568
244 570
244 571
244 574
244 587
244 592
244 596
244 599
597 12
597 14
597 17
597 26
597 30
597 35
597 38
597 43
597 45
597 48
597 60
597 61
597 65
597 69
597 70
597 86
597 93
597 109
597 115
597 117
597 122
597 128
597 129
597 132
597 149
597 152
597 158
597 191
597 197
597 209
597 212
597 219
597 225
597 232
597 246
597 257
597 260
597 261
597 264
597 267
597 274
597 278
597 280
597 290
597 293
597 296
597 314
597 317
597 321
597 323
597 328
597 335
597 349
597 352
597 372
597 374
597 380
597 382
597 388
597 389
597 399
597 403
597 408
597 416
597 453
597 458
597 460
597 466
597 481
597 485
597 486
597 490
597 500
597 509
597 510
597 520
597 532
597 533
597 534
597 535
597 537
597 540
597 542
597 548
597 551
597 552
597 557
597 558
597 565
597 568
597 569
597 570
597 571
597 577
597 581
597 594
444 3
444 11
444 17
444 25
444 26
444 35
444 36
444 37
444 42
444 49
444 50
444 51
444 52
444 53
444 70
444 72
444 84
444 100
444 104
444 111
444 115
444 125
444 126
444 132
444 133
444 135
444 140
444 143
444 149
444 151
444 156
444 162
444 163
444 167
444 169
444 182
444 191
444 193
444 198
444 199
444 203
444 204
444 208
444 213
444 215
444 218
444 219
444 230
444 250
444 253
444 255
444 258
444 265
444 266
444 268
444 274
444 281
444 283
444 285
444 286
444 289
444 295
444 300
444 310
444 313
444 318
444 320
444 322
444 323
444 324
444 328
444 335
444 341
444 342
444 348
444 351
444 362
444 364
444 369
444 371
444 380
444 391
444 392
444 395
444 396
444 406
444 407
444 408
444 419
444 427
444 429
444 431
444 437
444 440
444 450
444 457
444 458
444 469
444 473
444 475
444 478
444 486
444 493
444 495
444 496
444 501
444 511
444 512
444 515
444 519
444 527
444 531
444 532
444 540
444 550
444 551
444 553
444 568
444 570
444 578
444 580
444 585
444 587
444 589
444 595
444 596
43 5
43 10
43 11
43 13
43 19
43 27
43 33
43 34
43 43
43 45
43 51
43 52
43 64
43 73
43 80
43 83
43 85
43 86
43 89
43 91
43 97
43 108
43 112
43 113
43 117
43 124
43 139
43 140
43 141
43 151
43 154
43 156
43 157
43 159
43 166
43 167
43 168
43 171
43 172
43 188
43 189
43 195
43 207
43 208
43 211
43 225
43 226
43 227
43 236
43 239
43 240
43 241
43 243
43 247
43 253
43 257
43 276
43 278
43 285
43 288
43 289
43 295
43 309
43 323
43 327
43 328
43 329
43 336
43 348
43 351
43 354
43 355
43 357
43 368
43 370
43 371
43 372
43 382
43 389
43 390
43 394
43 401
43 407
43 408
43 413
43 415
43 421
43 426
43 429
43 431
43 433
43 455
43 459
43 465
43 468
43 474
43 497
43 510
43 514
43 534
43 535
43 539
43 542
43 545
43 546
43 550
43 552
43 570
43 579
43 581
43 589
43 590
43 598
180 1
180 8
180 14
180 21
180 22
180 24
180 28
180 34
180 39
180 41
180 42
180 44
180 49
180 50
180 55
180 57
180 70
180 79
180 84
180 89
180 95
180 98
180 99
180 102
180 108
180 110
180 119
180 122
180 124
180 134
180 136
180 138
180 140
180 143
180 144
180 152
180 158
180 162
180 164
180 170
180 171
180 173
180 176
180 177
180 178
180 184
180 195
180 201
180 209
180 213
180 214
180 228
180 234
180 241
180 244
180 251
180 254
180 255
180 263
180 269
180 272
180 273
180 275
180 277
180 278
180 281
180 284
180 292
180 293
180 294
180 300
180 303
180 313
180 315
180 319
180 333
180 334
180 338
180 349
180 362
180 374
180 382
180 384
180 385
180 388
180 392
180 395
180 409
180 410
180 412
180 414
180 420
180 422
180 425
180 426
180 439
180 442
180 446
180 449
180 450
180 451
180 452
180 455
180 462
180 465
180 468
180 470
180 474
180 493
180 494
180 500
180 506
180 514
180 523
180 524
180 529
180 540
180 548
180 549
180 550
180 552
180 556
180 557
180 564
180 571
180 582
180 587
180 589
180 592
180 595
180 600
482 15
482 19
482 26
482 37
482 43
482 55
482 56
482 58
482 60
482 71
482 73
482 74
482 76
482 77
482 80
482 83
482 89
482 92
482 100
482 110
482 114
482 115
482 117
482 118
482 136
482 137
482 139
482 141
482 142
482 146
482 148
482 153
482 155
482 160
482 165
482 170
482 176
482 178
482 182
482 188
482 192
482 201
482 203
482 204
482 205
482 216
482 219
482 226
482 228
482 238
482 242
482 245
482 249
482 251
482 260
482 261
482 271
482 272
482 278
482 281
482 284
482 286
482 296
482 306
482 320
482 322
482 325
482 330
482 341
482 342
482 343
482 350
482 353
482 354
482 358
482 359
482 360
482 363
482 371
482 377
482 378
482 383
482 391
482 392
482 395
482 401
482 403
482 429
482 431
482 437
482 438
482 448
482 449
482 457
482 458
482 465
482 470
482 483
482 490
482 501
482 519
482 523
482 528
482 540
482 543
482 546
482 549
482 557
482 570
482 573
482 582
482 591
482 595
217 16
217 19
217 26
217 33
217 34
217 45
217 46
217 61
217 66
217 80
217 81
217 82
217 83
217 87
217 91
217 94
217 96
217 97
217 100
217 101
217 103
217 105
217 107
217 115
217 127
217 129
217 133
217 134
217 146
217 148
217 153
217 155
217 158
217 160
217 168
217 181
217 183
217 192
217 193
217 197
217 206
217 208
217 209
217 229
217 230
217 232
217 244
217 246
217 254
217 262
217 271
217 273
217 275
217 280
217 281
217 290
217 296
217 299
217 300
217 302
217 305
217 307
217 316
217 323
217 325
217 329
217 341
217 345
217 346
217 347
217 348
217 354
217 364
217 369
217 372
217 381
217 388
217 394
217 395
217 398
217 400
217 402
217 428
217 439
217 441
217 445
217 452
217 455
217 467
217 474
217 477
217 491
217 500
217 505
217 514
217 516
217 521
217 523
217 530
217 535
217 536
217 542
217 543
217 545
217 546
217 547
217 570
217 571
217 574
217 575
217 576
217 578
217 585
217 586
248 9
248 15
248 18
248 20
248 24
248 28
248 31
248 34
248 51
248 53
248 56
248 59
248 70
248 76
248 80
248 82
248 90
248 92
248 96
248 99
248 101
248 105
248 106
248 107
248 112
248 113
248 114
248 120
248 121
248 122
248 123
248 124
248 133
248 134
248 140
248 143
248 144
248 148
248 164
248 168
248 176
248 179
248 182
248 189
248 191
248 197
248 201
248 208
248 209
248 234
248 236
248 244
248 250
248 273
248 288
248 290
248 299
248 303
248 306
248 312
248 317
248 318
248 320
248 324
248 329
248 330
248 341
248 342
248 347
248 350
248 353
248 362
248 366
248 369
248 373
248 376
248 380
248 383
248 389
248 390
248 401
248 405
248 410
248 411
248 423
248 424
248 436
248 437
248 440
248 443
248 449
248 460
248 464
248 466
248 472
248 479
248 483
248 504
248 509
248 510
248 516
248 521
248 527
248 542
248 546
248 547
248 548
248 552
248 562
248 564
248 568
248 575
248 579
248 584
248 585
248 588
248 593
567 3
567 4
567 12
567 18
567 32
567 40
567 42
567 43
567 47
567 52
567 53
567 55
567 61
567 68
567 71
567 77
567 93
567 98
567 103
567 105
567 114
567 115
567 116
567 117
567 119
567 132
567 136
567 150
567 153
567 155
567 160
567 167
567 168
567 174
567 178
567 180
567 183
567 184
567 188
567 194
567 198
567 201
567 203
567 214
567 215
567 216
567 219
567 220
567 228
567 230
567 233
567 234
567 236
567 240
567 241
567 245
567 252
567 256
567 262
567 272
567 277
567 289
567 292
567 301
567 303
567 321
567 324
567 325
567 327
567 328
567 329
567 348
567 352
567 354
567 355
567 357
567 358
567 359
567 360
567 362
567 372
567 373
567 374
567 396
567 400
567 404
567 408
567 428
567 432
567 442
567 451
567 452
567 453
567 465
567 467
567 469
567 477
567 492
567 498
567 499
567 507
567 513
567 514
567 515
567 519
567 526
567 531
567 537
567 543
567 544
567 545
567 549
567 551
567 552
567 557
567 562
567 565
567 566
567 567
567 573
567 575
567 577
567 579
567 581
567 586
567 587
567 594
45 7
45 10
45 14
45 15
45 20
45 27
45 35
45 43
45 46
45 49
45 58
45 59
45 65
45 67
45 69
45 71
45 72
45 80
45 82
45 97
45 102
45 104
45 113
45 115
45 137
45 145
45 149
45 154
45 157
45 158
45 160
45 166
45 170
45 172
45 173
45 176
45 179
45 182
45 186
45 190
45 191
45 192
45 194
45 195
45 196
45 199
45 202
45 214
45 219
45 230
45 234
45 239
45 250
45 251
45 254
45 256
45 259
45 265
45 277
45 278
45 285
45 287
45 292
45 299
45 305
45 307
45 310
45 320
45 321
45 324
45 325
45 336
45 343
45 344
45 350
45 352
45 363
45 366
45 383
45 384
45 404
45 416
45 424
45 426
45 428
45 429
45 430
45 432
45 437
45 438
45 442
45 452
45 453
45 455
45 459
45 468
45 470
45 480
45 490
45 498
45 504
45 506
45 519
45 524
45 526
45 530
45 531
45 532
45 546
45 547
45 549
45 550
45 551
45 554
45 555
45 559
45 560
45 561
45 563
45 564
45 570
45 571
45 574
45 577
45 582
45 600
